\ENCODING=ISO-8859-1
\Problem name: ilog.cplex

Minimize
 obj: y10 + y9 + y8 + y7 + y6 + y5 + y4 + y3 + y2 + y1
Subject To
 cover1:   x10,1 + x9,1 + x8,1 + x7,1 + x6,1 + x5,1 + x4,1 + x3,1 + x2,1 + x1,1
            = 1
 cover2:   x10,2 + x9,2 + x8,2 + x7,2 + x6,2 + x5,2 + x4,2 + x3,2 + x2,2 + x1,2
            = 1
 cover3:   x10,3 + x9,3 + x8,3 + x7,3 + x6,3 + x5,3 + x4,3 + x3,3 + x2,3 + x1,3
            = 1
 cover4:   x10,4 + x9,4 + x8,4 + x7,4 + x6,4 + x5,4 + x4,4 + x3,4 + x2,4 + x1,4
            = 1
 cover5:   x10,5 + x9,5 + x8,5 + x7,5 + x6,5 + x5,5 + x4,5 + x3,5 + x2,5 + x1,5
            = 1
 cover6:   x10,6 + x9,6 + x8,6 + x7,6 + x6,6 + x5,6 + x4,6 + x3,6 + x2,6 + x1,6
            = 1
 cover7:   x10,7 + x9,7 + x8,7 + x7,7 + x6,7 + x5,7 + x4,7 + x3,7 + x2,7 + x1,7
            = 1
 cover8:   x10,8 + x9,8 + x8,8 + x7,8 + x6,8 + x5,8 + x4,8 + x3,8 + x2,8 + x1,8
            = 1
 cover9:   x10,9 + x9,9 + x8,9 + x7,9 + x6,9 + x5,9 + x4,9 + x3,9 + x2,9 + x1,9
            = 1
 cover10:  x10,10 + x9,10 + x8,10 + x7,10 + x6,10 + x5,10 + x4,10 + x3,10
           + x2,10 + x1,10  = 1
 length1:  - 150 y1 + 40 x1,1 + 45 x1,2 + 50 x1,3 + 70 x1,4 + 75 x1,5 + 80 x1,6
           + 85 x1,7 + 95 x1,8 + 105 x1,9 + 110 x1,10 <= 0
 length2:  - 150 y2 + 40 x2,1 + 45 x2,2 + 50 x2,3 + 70 x2,4 + 75 x2,5 + 80 x2,6
           + 85 x2,7 + 95 x2,8 + 105 x2,9 + 110 x2,10 <= 0
 length3:  - 150 y3 + 40 x3,1 + 45 x3,2 + 50 x3,3 + 70 x3,4 + 75 x3,5 + 80 x3,6
           + 85 x3,7 + 95 x3,8 + 105 x3,9 + 110 x3,10 <= 0
 length4:  - 150 y4 + 40 x4,1 + 45 x4,2 + 50 x4,3 + 70 x4,4 + 75 x4,5 + 80 x4,6
           + 85 x4,7 + 95 x4,8 + 105 x4,9 + 110 x4,10 <= 0
 length5:  - 150 y5 + 40 x5,1 + 45 x5,2 + 50 x5,3 + 70 x5,4 + 75 x5,5 + 80 x5,6
           + 85 x5,7 + 95 x5,8 + 105 x5,9 + 110 x5,10 <= 0
 length6:  - 150 y6 + 40 x6,1 + 45 x6,2 + 50 x6,3 + 70 x6,4 + 75 x6,5 + 80 x6,6
           + 85 x6,7 + 95 x6,8 + 105 x6,9 + 110 x6,10 <= 0
 length7:  - 150 y7 + 40 x7,1 + 45 x7,2 + 50 x7,3 + 70 x7,4 + 75 x7,5 + 80 x7,6
           + 85 x7,7 + 95 x7,8 + 105 x7,9 + 110 x7,10 <= 0
 length8:  - 150 y8 + 40 x8,1 + 45 x8,2 + 50 x8,3 + 70 x8,4 + 75 x8,5 + 80 x8,6
           + 85 x8,7 + 95 x8,8 + 105 x8,9 + 110 x8,10 <= 0
 length9:  - 150 y9 + 40 x9,1 + 45 x9,2 + 50 x9,3 + 70 x9,4 + 75 x9,5 + 80 x9,6
           + 85 x9,7 + 95 x9,8 + 105 x9,9 + 110 x9,10 <= 0
 length10: - 150 y10 + 40 x10,1 + 45 x10,2 + 50 x10,3 + 70 x10,4 + 75 x10,5
           + 80 x10,6 + 85 x10,7 + 95 x10,8 + 105 x10,9 + 110 x10,10 <= 0
Bounds
 0 <= y10 <= 1
 0 <= y9 <= 1
 0 <= y8 <= 1
 0 <= y7 <= 1
 0 <= y6 <= 1
 0 <= y5 <= 1
 0 <= y4 <= 1
 0 <= y3 <= 1
 0 <= y2 <= 1
 0 <= y1 <= 1
 0 <= x10,1 <= 10
 0 <= x9,1 <= 10
 0 <= x8,1 <= 10
 0 <= x7,1 <= 10
 0 <= x6,1 <= 10
 0 <= x5,1 <= 10
 0 <= x4,1 <= 10
 0 <= x3,1 <= 10
 0 <= x2,1 <= 10
 0 <= x1,1 <= 10
 0 <= x10,2 <= 10
 0 <= x9,2 <= 10
 0 <= x8,2 <= 10
 0 <= x7,2 <= 10
 0 <= x6,2 <= 10
 0 <= x5,2 <= 10
 0 <= x4,2 <= 10
 0 <= x3,2 <= 10
 0 <= x2,2 <= 10
 0 <= x1,2 <= 10
 0 <= x10,3 <= 10
 0 <= x9,3 <= 10
 0 <= x8,3 <= 10
 0 <= x7,3 <= 10
 0 <= x6,3 <= 10
 0 <= x5,3 <= 10
 0 <= x4,3 <= 10
 0 <= x3,3 <= 10
 0 <= x2,3 <= 10
 0 <= x1,3 <= 10
 0 <= x10,4 <= 10
 0 <= x9,4 <= 10
 0 <= x8,4 <= 10
 0 <= x7,4 <= 10
 0 <= x6,4 <= 10
 0 <= x5,4 <= 10
 0 <= x4,4 <= 10
 0 <= x3,4 <= 10
 0 <= x2,4 <= 10
 0 <= x1,4 <= 10
 0 <= x10,5 <= 10
 0 <= x9,5 <= 10
 0 <= x8,5 <= 10
 0 <= x7,5 <= 10
 0 <= x6,5 <= 10
 0 <= x5,5 <= 10
 0 <= x4,5 <= 10
 0 <= x3,5 <= 10
 0 <= x2,5 <= 10
 0 <= x1,5 <= 10
 0 <= x10,6 <= 10
 0 <= x9,6 <= 10
 0 <= x8,6 <= 10
 0 <= x7,6 <= 10
 0 <= x6,6 <= 10
 0 <= x5,6 <= 10
 0 <= x4,6 <= 10
 0 <= x3,6 <= 10
 0 <= x2,6 <= 10
 0 <= x1,6 <= 10
 0 <= x10,7 <= 10
 0 <= x9,7 <= 10
 0 <= x8,7 <= 10
 0 <= x7,7 <= 10
 0 <= x6,7 <= 10
 0 <= x5,7 <= 10
 0 <= x4,7 <= 10
 0 <= x3,7 <= 10
 0 <= x2,7 <= 10
 0 <= x1,7 <= 10
 0 <= x10,8 <= 10
 0 <= x9,8 <= 10
 0 <= x8,8 <= 10
 0 <= x7,8 <= 10
 0 <= x6,8 <= 10
 0 <= x5,8 <= 10
 0 <= x4,8 <= 10
 0 <= x3,8 <= 10
 0 <= x2,8 <= 10
 0 <= x1,8 <= 10
 0 <= x10,9 <= 10
 0 <= x9,9 <= 10
 0 <= x8,9 <= 10
 0 <= x7,9 <= 10
 0 <= x6,9 <= 10
 0 <= x5,9 <= 10
 0 <= x4,9 <= 10
 0 <= x3,9 <= 10
 0 <= x2,9 <= 10
 0 <= x1,9 <= 10
 0 <= x10,10 <= 10
 0 <= x9,10 <= 10
 0 <= x8,10 <= 10
 0 <= x7,10 <= 10
 0 <= x6,10 <= 10
 0 <= x5,10 <= 10
 0 <= x4,10 <= 10
 0 <= x3,10 <= 10
 0 <= x2,10 <= 10
 0 <= x1,10 <= 10
Generals
 y10  y9  y8  y7  y6  y5  y4  y3  y2  y1  x10,1  x9,1  x8,1  x7,1  x6,1  x5,1 
 x4,1  x3,1  x2,1  x1,1  x10,2  x9,2  x8,2  x7,2  x6,2  x5,2  x4,2  x3,2  x2,2 
 x1,2  x10,3  x9,3  x8,3  x7,3  x6,3  x5,3  x4,3  x3,3  x2,3  x1,3  x10,4 
 x9,4  x8,4  x7,4  x6,4  x5,4  x4,4  x3,4  x2,4  x1,4  x10,5  x9,5  x8,5  x7,5 
 x6,5  x5,5  x4,5  x3,5  x2,5  x1,5  x10,6  x9,6  x8,6  x7,6  x6,6  x5,6  x4,6 
 x3,6  x2,6  x1,6  x10,7  x9,7  x8,7  x7,7  x6,7  x5,7  x4,7  x3,7  x2,7  x1,7 
 x10,8  x9,8  x8,8  x7,8  x6,8  x5,8  x4,8  x3,8  x2,8  x1,8  x10,9  x9,9 
 x8,9  x7,9  x6,9  x5,9  x4,9  x3,9  x2,9  x1,9  x10,10  x9,10  x8,10  x7,10 
 x6,10  x5,10  x4,10  x3,10  x2,10  x1,10 
End
